problems/VanDerWaerdenNumbers/VanDerWaerden-models/noch/O2/lingeling/model_3-k3l4n33-solution000001.solution
language Essence 1.3

letting p be
        partition({1, 2, 4, 5, 6, 9, 11, 12, 18, 20, 21, 22, 26}, {3, 7, 8, 10, 14, 16, 17, 25, 27, 28, 31, 33},
                  {13, 15, 19, 23, 24, 29, 30, 32})
